90 77 177 174 151 73 76 137 36 33 91 119 114 68 39 22 20 106 79 117 103 189 157 97 83 141 81 140 71 50 179 48 18 3 74 124 25 51 72 49 172 87 110 123 92 55 125 127 159 191 128 99 28 163 15 19 145 162 193 85 65 31 29 146 132 153 152 112 41 186 56 27 180 154 63 5 142 185 6 35 178 139 64 89 101 187 147 46 98 95 37 11 118 129 168 194 26 62 116 165 109 100 61 161 143 58 59 45 181 167 135 164 138 122 52 38 24 14 78 21 105 107 176 156 104 82 144 148 196 86 9 182 102 30 42 44 94 40 23 149 160 171 111 93 150 96 67 1 113 131 188 184 43 10 166 133 173 170 169 192 32 34 121 75 66 69 130 136 54 17 120 126 80 53 108 47 4 175 88 115 57 60 134 195 12 7 155 70 84 190 158 13 2 183 16 8 